Route #1: 1 1 16 49 24 3 72 26 67 8 13 4 33 73 1 
Route #2: 1 41 64 74 29 45 34 46 19 59 53 35 7 1 
Route #3: 1 68 75 11 66 31 10 58 12 17 23 1 
Route #4: 1 63 6 30 5 15 37 70 71 69 36 47 21 2 62 1 
Route #5: 1 43 56 42 61 60 20 57 54 52 27 48 28 1 
Route #6: 1 22 51 40 65 39 9 25 55 18 50 32 44 1 
Route #7: 1 38 14 1 

Cost 1128.86
Time 1.1406


 * Another infos *

 Iterations: 76 Time: 1.1406 sec - 0.0190 min - 0.0003 horas
0.0000 h 0.0190 min
Problem dimension: 76
